tsp_instances/TSP50/instance23.tsp
NODE_COORD_SECTION
0 185 51
1 39 117
2 36 84
3 62 93
4 88 171
5 128 101
6 32 13
7 82 129
8 93 76
9 121 26
10 140 107
11 76 3
12 62 87
13 119 36
14 106 39
15 106 139
16 128 156
17 4 40
18 149 46
19 119 23
20 150 122
21 43 197
22 37 61
23 107 26
24 17 31
25 147 140
26 139 187
27 95 65
28 69 78
29 68 15
30 66 85
31 172 167
32 121 168
33 112 7
34 34 155
35 174 70
36 151 177
37 162 27
38 189 126
39 174 192
40 28 147
41 129 144
42 33 23
43 111 104
44 61 40
45 17 69
46 114 41
47 67 84
48 93 189
49 141 99
