tsp_instances/TSP50/instance23.opt.tour
TOUR_SECTION
1
36
39
32
40
37
27
33
17
42
26
21
11
50
6
44
9
28
29
48
31
13
4
8
16
5
49
22
35
41
2
3
23
46
18
25
7
43
45
30
12
34
20
10
24
15
47
14
19
38
-1